0 21 46
0 48 64
1 6 45
1 29 390
2 16 217
2 17 135
3 5 70
3 24 109
4 14 25
4 23 32
5 14 40
6 41 76
7 8 183
7 40 64
8 9 83
9 42 308
10 50 285
10 51 399
11 24 245
11 27 182
12 13 206
12 46 324
13 51 319
15 28 201
15 45 156
16 20 253
17 30 80
18 40 92
18 44 75
19 22 94
19 49 35
20 41 290
21 30 104
22 29 179
23 47 16
25 26 126
25 46 186
26 27 110
28 49 191
31 44 151
31 48 50
32 42 365
32 50 475
33 34 21
33 43 80
34 35 15
35 38 43
36 37 43
36 39 41
37 47 49
38 39 43
43 45 131
The cost of the best tour is: 7542.0
